15
0 2 67 57 80 71 47 47 63 62 40 74 54 55 33
2 0 29 43 46 73 26 35 52 53 87 16 2 39 63
67 29 0 52 13 30 81 29 81 55 76 38 56 60 70
57 43 52 0 35 8 57 66 56 68 88 14 76 81 78
80 46 13 35 0 76 44 15 77 55 86 22 70 60 45
71 73 30 8 76 0 90 60 55 49 56 48 55 29 40
47 26 81 57 44 90 0 56 30 50 60 55 89 50 60
47 35 29 66 15 60 56 0 18 67 20 48 54 28 41
63 52 81 56 77 55 30 18 0 52 65 32 45 78 62
62 53 55 68 55 49 50 67 52 0 87 47 46 51 83
40 87 76 88 86 56 60 20 65 87 0 42 81 59 29
74 16 38 14 22 48 55 48 32 47 42 0 56 77 44
54 2 56 76 70 55 89 54 45 46 81 56 0 71 60
55 39 60 81 60 29 50 28 78 51 59 77 71 0 41
33 63 70 78 45 40 60 41 62 83 29 44 60 41 0
